226 176192
1 2 3 4 8 11 12 13 69 70 106 203 204 205 206 207 208 209 210 211 212 49 31 32 33 48 46 47 95 89 88 90 91 99 98 97 96 63 62 61 60 59 58 64 104 116 117 110 118 119 120 121 128 127 129 131 124 122 123 130 132 213 214 215 216 217 218 219 220 221 222 223 224 226 225 125 126 54 53 50 21 22 23 24 25 26 27 28 29 30 34 35 36 42 41 40 39 38 37 45 44 43 87 92 100 93 102 94 101 103 105 111 112 113 114 115 107 108 109 133 134 190 189 188 187 186 185 184 183 182 181 180 170 167 166 165 164 163 162 161 160 159 158 157 156 155 147 145 146 138 139 137 86 85 72 71 68 17 18 19 65 20 51 52 55 56 57 136 135 202 201 200 199 198 197 196 195 194 193 192 191 142 148 149 141 140 143 150 179 178 177 176 175 174 173 172 171 169 168 154 153 152 151 144 66 67 16 15 14 10 9 7 6 5 73 81 83 84 82 80 79 78 77 76 75 74 
